c colouring generated by benchmark framework
p edge 74 301
v 1 0
v 2 0
v 3 1
v 4 1
v 5 10
v 6 9
v 7 7
v 8 5
v 9 3
v 10 4
v 11 8
v 12 5
v 13 9
v 14 4
v 15 10
v 16 0
v 17 5
v 18 6
v 19 4
v 20 0
v 21 10
v 22 4
v 23 1
v 24 0
v 25 4
v 26 1
v 27 2
v 28 1
v 29 1
v 30 4
v 31 9
v 32 10
v 33 4
v 34 2
v 35 4
v 36 9
v 37 3
v 38 2
v 39 3
v 40 3
v 41 10
v 42 5
v 43 2
v 44 1
v 45 2
v 46 9
v 47 3
v 48 8
v 49 2
v 50 5
v 51 5
v 52 0
v 53 5
v 54 2
v 55 7
v 56 9
v 57 8
v 58 7
v 59 6
v 60 3
v 61 1
v 62 4
v 63 7
v 64 8
v 65 9
v 66 2
v 67 6
v 68 5
v 69 10
v 70 6
v 71 0
v 72 1
v 73 0
v 74 1
